
===== New CPLEX run =====
Instance: /home/yorig/tuner/mpils-tests/instances/miplib/easy/lotsize.mps
Config: /scratch/yorig/mpils-results-grid-ticks-10000/easy/16proc/seed-9/4_lotsize_seed-9_20260425_202405/iterated_local_search/run_3_worker_3/ils_config_5893775377947136922.prm
========================

Selected objective sense:  MINIMIZE
Selected objective  name:  R1921
Selected RHS        name:  B
Selected bound      name:  BOUND
Version identifier: 22.1.2.0 | 2024-11-26 | 0edbb82fd
CPXPARAM_Threads                                 8
CPXPARAM_Parallel                                1
CPXPARAM_MIP_Strategy_SubAlgorithm               1
CPXPARAM_MIP_Strategy_VariableSelect             -1
CPXPARAM_MIP_Cuts_FlowCovers                     2
CPXPARAM_MIP_Cuts_GUBCovers                      1
CPXPARAM_MIP_Limits_GomoryCand                   50
CPXPARAM_MIP_Cuts_Gomory                         2
CPXPARAM_MIP_Cuts_PathCut                        2
CPXPARAM_MIP_Cuts_MIRCut                         2
CPXPARAM_MIP_Cuts_Disjunctive                    2
CPXPARAM_Emphasis_MIP                            3
CPXPARAM_DetTimeLimit                            10000
Tried aggregator 1 time.
MIP Presolve eliminated 595 rows and 0 columns.
MIP Presolve added 1190 rows and 0 columns.
MIP Presolve modified 10 coefficients.
Reduced MIP has 2515 rows, 2985 columns, and 7755 nonzeros.
Reduced MIP has 1195 binaries, 0 generals, 0 SOSs, and 0 indicators.
Presolve time = 0.00 sec. (4.53 ticks)
Probing fixed 0 vars, tightened 5487 bounds.
Probing time = 0.01 sec. (18.38 ticks)
Tried aggregator 2 times.
Detecting symmetries...
MIP Presolve modified 1206 coefficients.
Aggregator did 10 substitutions.
Reduced MIP has 2505 rows, 2975 columns, and 7735 nonzeros.
Reduced MIP has 1195 binaries, 0 generals, 0 SOSs, and 0 indicators.
Presolve time = 0.00 sec. (6.66 ticks)
Probing fixed 0 vars, tightened 2401 bounds.
Probing time = 0.00 sec. (6.41 ticks)
Clique table members: 160.
MIP emphasis: best bound.
MIP search method: dynamic search.
Parallel mode: deterministic, using up to 8 threads.
Root relaxation solution time = 0.01 sec. (7.84 ticks)

        Nodes                                         Cuts/
   Node  Left     Objective  IInf  Best Integer    Best Bound    ItCnt     Gap

      0     0   348385.3466   472                 348385.3466      882         
      0     0   572764.1081   476                   Cuts: 726     3056         
*     0+    0                       1.08875e+07   572764.1081            94.74%
*     0+    0                      8692065.0000   572764.1081            93.41%
      0     0   804656.3562   669  8692065.0000     Cuts: 726     5203   90.55%
      0     0   958710.2432   675  8692065.0000     Cuts: 726     7383   88.07%
*     0+    0                      2370071.0000  1036586.2238            56.26%
      0     0  1068255.1906   681  2370071.0000     Cuts: 726     9303   54.09%
      0     0  1135049.3992   720  2370071.0000     Cuts: 726    11059   50.22%
Detecting symmetries...
      0     0  1196541.6599   726  2370071.0000     Cuts: 726    12972   48.45%
      0     0  1238001.6719   760  2370071.0000     Cuts: 726    14950   47.00%
*     0+    0                      2359445.0000  1256034.1574            46.77%
      0     0  1262788.6843   790  2359445.0000     Cuts: 703    16853   46.04%

GUB cover cuts applied:  0
Clique cuts applied:  1
Cover cuts applied:  10
Implied bound cuts applied:  15
Flow cuts applied:  393
Mixed integer rounding cuts applied:  888
Flow path cuts applied:  52
Multi commodity flow cuts applied:  45
Lift and project cuts applied:  2
Gomory fractional cuts applied:  1
Disjunctive cuts applied:  0
Cone linearizations applied:  0

Root node processing (before b&c):
  Real time             =    6.39 sec. (10105.94 ticks)
Parallel b&c, 8 threads:
  Real time             =    0.00 sec. (0.00 ticks)
  Sync time (average)   =    0.00 sec.
  Wait time (average)   =    0.00 sec.
                          ------------
Total (root+branch&cut) =    6.39 sec. (10105.94 ticks)
Gap: 45.77%
Upper bound: 2.35944e+06
Lower bound: 1.27961e+06
End of CPLEX run. Time: 6.39038 seconds

===== New CPLEX run =====
Instance: /home/yorig/tuner/mpils-tests/instances/miplib/easy/lotsize.mps
Config: /scratch/yorig/mpils-results-grid-ticks-10000/easy/16proc/seed-9/4_lotsize_seed-9_20260425_202405/iterated_local_search/run_3_worker_3/ils_config_11279671213817088335.prm
========================

Selected objective sense:  MINIMIZE
Selected objective  name:  R1921
Selected RHS        name:  B
Selected bound      name:  BOUND
Version identifier: 22.1.2.0 | 2024-11-26 | 0edbb82fd
CPXPARAM_Threads                                 8
CPXPARAM_Parallel                                1
CPXPARAM_MIP_Strategy_SubAlgorithm               1
CPXPARAM_MIP_Strategy_VariableSelect             1
CPXPARAM_MIP_Cuts_FlowCovers                     2
CPXPARAM_MIP_Cuts_GUBCovers                      1
CPXPARAM_MIP_Limits_GomoryCand                   50
CPXPARAM_MIP_Cuts_Gomory                         2
CPXPARAM_MIP_Cuts_PathCut                        2
CPXPARAM_MIP_Cuts_MIRCut                         2
CPXPARAM_MIP_Cuts_Disjunctive                    2
CPXPARAM_Emphasis_MIP                            3
CPXPARAM_DetTimeLimit                            10000
Tried aggregator 1 time.
MIP Presolve eliminated 595 rows and 0 columns.
MIP Presolve added 1190 rows and 0 columns.
MIP Presolve modified 10 coefficients.
Reduced MIP has 2515 rows, 2985 columns, and 7755 nonzeros.
Reduced MIP has 1195 binaries, 0 generals, 0 SOSs, and 0 indicators.
Presolve time = 0.00 sec. (4.53 ticks)
Probing fixed 0 vars, tightened 5487 bounds.
Probing time = 0.01 sec. (18.38 ticks)
Tried aggregator 2 times.
Detecting symmetries...
MIP Presolve modified 1206 coefficients.
Aggregator did 10 substitutions.
Reduced MIP has 2505 rows, 2975 columns, and 7735 nonzeros.
Reduced MIP has 1195 binaries, 0 generals, 0 SOSs, and 0 indicators.
Presolve time = 0.01 sec. (6.66 ticks)
Probing fixed 0 vars, tightened 2401 bounds.
Probing time = 0.01 sec. (6.41 ticks)
Clique table members: 160.
MIP emphasis: best bound.
MIP search method: dynamic search.
Parallel mode: deterministic, using up to 8 threads.
Root relaxation solution time = 0.01 sec. (7.84 ticks)

        Nodes                                         Cuts/
   Node  Left     Objective  IInf  Best Integer    Best Bound    ItCnt     Gap

      0     0   348385.3466   472                 348385.3466      882         
      0     0   572764.1081   476                   Cuts: 726     3056         
*     0+    0                       1.08875e+07   572764.1081            94.74%
*     0+    0                      8692065.0000   572764.1081            93.41%
      0     0   804656.3562   669  8692065.0000     Cuts: 726     5203   90.55%
      0     0   958710.2432   675  8692065.0000     Cuts: 726     7383   88.07%
*     0+    0                      2057580.0000  1036586.2238            49.62%
      0     0  1068255.1906   681  2057580.0000     Cuts: 726     9303   44.58%
*     0+    0                      2044869.0000  1140352.9356            44.23%
      0     0  1148938.1897   711  2044869.0000     Cuts: 726    11173   42.31%
Detecting symmetries...
      0     0  1197976.1917   760  2044869.0000     Cuts: 726    12909   40.00%
      0     0  1241207.8678   778  2044869.0000     Cuts: 726    14767   38.24%
*     0+    0                      2027929.0000  1262949.2067            37.72%
      0     0  1266775.1638   754  2027929.0000     Cuts: 650    16514   36.89%

GUB cover cuts applied:  0
Clique cuts applied:  1
Cover cuts applied:  10
Implied bound cuts applied:  14
Flow cuts applied:  402
Mixed integer rounding cuts applied:  886
Flow path cuts applied:  42
Multi commodity flow cuts applied:  42
Lift and project cuts applied:  1
Gomory fractional cuts applied:  3
Disjunctive cuts applied:  0
Cone linearizations applied:  0

Root node processing (before b&c):
  Real time             =    6.33 sec. (10068.81 ticks)
Parallel b&c, 8 threads:
  Real time             =    0.00 sec. (0.00 ticks)
  Sync time (average)   =    0.00 sec.
  Wait time (average)   =    0.00 sec.
                          ------------
Total (root+branch&cut) =    6.33 sec. (10068.81 ticks)
Gap: 36.89%
Upper bound: 2.02793e+06
Lower bound: 1.27975e+06
End of CPLEX run. Time: 6.33319 seconds

===== New CPLEX run =====
Instance: /home/yorig/tuner/mpils-tests/instances/miplib/easy/lotsize.mps
Config: /scratch/yorig/mpils-results-grid-ticks-10000/easy/16proc/seed-9/4_lotsize_seed-9_20260425_202405/iterated_local_search/run_3_worker_3/ils_config_6600122880238751266.prm
========================

Selected objective sense:  MINIMIZE
Selected objective  name:  R1921
Selected RHS        name:  B
Selected bound      name:  BOUND
Version identifier: 22.1.2.0 | 2024-11-26 | 0edbb82fd
CPXPARAM_Threads                                 8
CPXPARAM_Parallel                                1
CPXPARAM_MIP_Strategy_SubAlgorithm               1
CPXPARAM_MIP_Strategy_VariableSelect             1
CPXPARAM_MIP_Cuts_FlowCovers                     2
CPXPARAM_MIP_Cuts_GUBCovers                      1
CPXPARAM_MIP_Limits_GomoryCand                   50
CPXPARAM_MIP_Cuts_Gomory                         2
CPXPARAM_MIP_Cuts_PathCut                        2
CPXPARAM_MIP_Cuts_MIRCut                         2
CPXPARAM_MIP_Cuts_Disjunctive                    2
CPXPARAM_DetTimeLimit                            10000
Tried aggregator 1 time.
MIP Presolve eliminated 595 rows and 0 columns.
MIP Presolve added 1190 rows and 0 columns.
MIP Presolve modified 10 coefficients.
Reduced MIP has 2515 rows, 2985 columns, and 7755 nonzeros.
Reduced MIP has 1195 binaries, 0 generals, 0 SOSs, and 0 indicators.
Presolve time = 0.00 sec. (4.53 ticks)
Probing fixed 0 vars, tightened 5487 bounds.
Probing time = 0.01 sec. (18.38 ticks)
Tried aggregator 2 times.
Detecting symmetries...
MIP Presolve modified 1206 coefficients.
Aggregator did 10 substitutions.
Reduced MIP has 2505 rows, 2975 columns, and 7735 nonzeros.
Reduced MIP has 1195 binaries, 0 generals, 0 SOSs, and 0 indicators.
Presolve time = 0.00 sec. (6.66 ticks)
Probing fixed 0 vars, tightened 2401 bounds.
Probing time = 0.00 sec. (6.41 ticks)
Clique table members: 190.
MIP emphasis: balance optimality and feasibility.
MIP search method: dynamic search.
Parallel mode: deterministic, using up to 8 threads.
Root relaxation solution time = 0.01 sec. (7.84 ticks)

        Nodes                                         Cuts/
   Node  Left     Objective  IInf  Best Integer    Best Bound    ItCnt     Gap

      0     0   348385.3466   472                 348385.3466      882         
      0     0   572313.5958   462                   Cuts: 726     2990         
*     0+    0                       1.04207e+07   572313.5958            94.51%
*     0+    0                      8230245.0000   572313.5958            93.05%
      0     0   811019.0439   672  8230245.0000     Cuts: 726     5250   90.03%
      0     0   954946.6746   696  8230245.0000     Cuts: 726     7177   88.40%
*     0+    0                      2022353.0000   954946.6746            52.78%
      0     0  1047354.0873   720  2022353.0000     Cuts: 726     9007   48.21%
*     0+    0                      2017069.0000  1047354.0873            48.08%
      0     0  1113702.9763   764  2017069.0000     Cuts: 726    10824   43.46%
Detecting symmetries...
      0     0  1178921.7036   668  2017069.0000     Cuts: 726    12728   41.21%
      0     0  1215351.4307   726  2017069.0000     Cuts: 726    14574   39.20%
      0     0  1241412.4677   732  2017069.0000     Cuts: 563    16171   37.44%
      0     0  1265111.4082   765  2017069.0000     Cuts: 599    18013   36.70%

GUB cover cuts applied:  0
Cover cuts applied:  10
Implied bound cuts applied:  23
Flow cuts applied:  635
Mixed integer rounding cuts applied:  1174
Flow path cuts applied:  86
Multi commodity flow cuts applied:  53
Gomory fractional cuts applied:  2
Disjunctive cuts applied:  0
Cone linearizations applied:  0

Root node processing (before b&c):
  Real time             =    6.18 sec. (10003.82 ticks)
Parallel b&c, 8 threads:
  Real time             =    0.00 sec. (0.00 ticks)
  Sync time (average)   =    0.00 sec.
  Wait time (average)   =    0.00 sec.
                          ------------
Total (root+branch&cut) =    6.18 sec. (10003.82 ticks)
Gap: 36.7%
Upper bound: 2.01707e+06
Lower bound: 1.27673e+06
End of CPLEX run. Time: 6.1858 seconds

===== New CPLEX run =====
Instance: /home/yorig/tuner/mpils-tests/instances/miplib/easy/lotsize.mps
Config: /scratch/yorig/mpils-results-grid-ticks-10000/easy/16proc/seed-9/4_lotsize_seed-9_20260425_202405/iterated_local_search/run_3_worker_3/ils_config_15703927368266878412.prm
========================

Selected objective sense:  MINIMIZE
Selected objective  name:  R1921
Selected RHS        name:  B
Selected bound      name:  BOUND
Version identifier: 22.1.2.0 | 2024-11-26 | 0edbb82fd
CPXPARAM_Threads                                 8
CPXPARAM_Parallel                                1
CPXPARAM_MIP_Strategy_SubAlgorithm               1
CPXPARAM_MIP_Cuts_FlowCovers                     2
CPXPARAM_MIP_Cuts_GUBCovers                      1
CPXPARAM_MIP_Limits_GomoryCand                   50
CPXPARAM_MIP_Cuts_Gomory                         2
CPXPARAM_MIP_Cuts_PathCut                        2
CPXPARAM_MIP_Cuts_MIRCut                         2
CPXPARAM_MIP_Cuts_Disjunctive                    2
CPXPARAM_DetTimeLimit                            10000
Tried aggregator 1 time.
MIP Presolve eliminated 595 rows and 0 columns.
MIP Presolve added 1190 rows and 0 columns.
MIP Presolve modified 10 coefficients.
Reduced MIP has 2515 rows, 2985 columns, and 7755 nonzeros.
Reduced MIP has 1195 binaries, 0 generals, 0 SOSs, and 0 indicators.
Presolve time = 0.00 sec. (4.53 ticks)
Probing fixed 0 vars, tightened 5487 bounds.
Probing time = 0.01 sec. (18.38 ticks)
Tried aggregator 2 times.
Detecting symmetries...
MIP Presolve modified 1206 coefficients.
Aggregator did 10 substitutions.
Reduced MIP has 2505 rows, 2975 columns, and 7735 nonzeros.
Reduced MIP has 1195 binaries, 0 generals, 0 SOSs, and 0 indicators.
Presolve time = 0.00 sec. (6.66 ticks)
Probing fixed 0 vars, tightened 2401 bounds.
Probing time = 0.00 sec. (6.41 ticks)
Clique table members: 190.
MIP emphasis: balance optimality and feasibility.
MIP search method: dynamic search.
Parallel mode: deterministic, using up to 8 threads.
Root relaxation solution time = 0.01 sec. (7.84 ticks)

        Nodes                                         Cuts/
   Node  Left     Objective  IInf  Best Integer    Best Bound    ItCnt     Gap

      0     0   348385.3466   472                 348385.3466      882         
      0     0   572313.5958   462                   Cuts: 726     2990         
*     0+    0                       1.04207e+07   572313.5958            94.51%
*     0+    0                      8230245.0000   572313.5958            93.05%
      0     0   811019.0439   672  8230245.0000     Cuts: 726     5250   90.03%
      0     0   954946.6746   696  8230245.0000     Cuts: 726     7177   88.40%
*     0+    0                      1987375.0000   954946.6746            51.95%
      0     0  1047354.0873   720  1987375.0000     Cuts: 726     9007   47.30%
      0     0  1113460.0173   767  1987375.0000     Cuts: 726    10726   42.61%
Detecting symmetries...
      0     0  1177717.4281   727  1987375.0000     Cuts: 726    12420   40.33%
      0     0  1214875.1142   740  1987375.0000     Cuts: 726    14165   38.17%
      0     0  1243950.3323   744  1987375.0000     Cuts: 692    16228   36.95%
      0     0  1261333.7239   778  1987375.0000     Cuts: 546    17695   35.99%

GUB cover cuts applied:  0
Cover cuts applied:  10
Implied bound cuts applied:  20
Flow cuts applied:  651
Mixed integer rounding cuts applied:  1178
Flow path cuts applied:  93
Multi commodity flow cuts applied:  48
Gomory fractional cuts applied:  2
Disjunctive cuts applied:  0
Cone linearizations applied:  0

Root node processing (before b&c):
  Real time             =    6.14 sec. (10000.99 ticks)
Parallel b&c, 8 threads:
  Real time             =    0.00 sec. (0.00 ticks)
  Sync time (average)   =    0.00 sec.
  Wait time (average)   =    0.00 sec.
                          ------------
Total (root+branch&cut) =    6.14 sec. (10000.99 ticks)
Gap: 35.99%
Upper bound: 1.98738e+06
Lower bound: 1.27215e+06
End of CPLEX run. Time: 6.14342 seconds

===== New CPLEX run =====
Instance: /home/yorig/tuner/mpils-tests/instances/miplib/easy/lotsize.mps
Config: /scratch/yorig/mpils-results-grid-ticks-10000/easy/16proc/seed-9/4_lotsize_seed-9_20260425_202405/iterated_local_search/run_3_worker_3/ils_config_12352451575075454151.prm
========================

Selected objective sense:  MINIMIZE
Selected objective  name:  R1921
Selected RHS        name:  B
Selected bound      name:  BOUND
Version identifier: 22.1.2.0 | 2024-11-26 | 0edbb82fd
CPXPARAM_Threads                                 8
CPXPARAM_Parallel                                1
CPXPARAM_MIP_Strategy_SubAlgorithm               1
CPXPARAM_MIP_Cuts_FlowCovers                     2
CPXPARAM_MIP_Cuts_Implied                        -1
CPXPARAM_MIP_Cuts_GUBCovers                      1
CPXPARAM_MIP_Limits_GomoryCand                   50
CPXPARAM_MIP_Cuts_Gomory                         2
CPXPARAM_MIP_Cuts_PathCut                        2
CPXPARAM_MIP_Cuts_MIRCut                         2
CPXPARAM_MIP_Cuts_Disjunctive                    2
CPXPARAM_DetTimeLimit                            10000
Tried aggregator 1 time.
MIP Presolve eliminated 595 rows and 0 columns.
MIP Presolve added 1190 rows and 0 columns.
MIP Presolve modified 10 coefficients.
Reduced MIP has 2515 rows, 2985 columns, and 7755 nonzeros.
Reduced MIP has 1195 binaries, 0 generals, 0 SOSs, and 0 indicators.
Presolve time = 0.00 sec. (4.53 ticks)
Probing fixed 0 vars, tightened 5487 bounds.
Probing time = 0.01 sec. (18.38 ticks)
Tried aggregator 2 times.
Detecting symmetries...
MIP Presolve modified 1206 coefficients.
Aggregator did 10 substitutions.
Reduced MIP has 2505 rows, 2975 columns, and 7735 nonzeros.
Reduced MIP has 1195 binaries, 0 generals, 0 SOSs, and 0 indicators.
Presolve time = 0.01 sec. (6.66 ticks)
Probing fixed 0 vars, tightened 2401 bounds.
Probing time = 0.00 sec. (6.41 ticks)
Clique table members: 190.
MIP emphasis: balance optimality and feasibility.
MIP search method: dynamic search.
Parallel mode: deterministic, using up to 8 threads.
Root relaxation solution time = 0.01 sec. (7.84 ticks)

        Nodes                                         Cuts/
   Node  Left     Objective  IInf  Best Integer    Best Bound    ItCnt     Gap

      0     0   348385.3466   472                 348385.3466      882         
      0     0   574823.5588   460                   Cuts: 726     3106         
*     0+    0                       1.04207e+07   574823.5588            94.48%
*     0+    0                      8230245.0000   574823.5588            93.02%
      0     0   818516.3272   674  8230245.0000     Cuts: 726     5358   90.05%
      0     0   951321.8000   671  8230245.0000     Cuts: 726     7389   88.42%
*     0+    0                      1987375.0000   953226.8494            52.04%
      0     0  1049021.6627   722  1987375.0000     Cuts: 726     9378   47.22%
      0     0  1115734.1740   768  1987375.0000     Cuts: 726    11191   43.86%
Detecting symmetries...
      0     0  1164893.6289   779  1987375.0000     Cuts: 726    12848   40.54%
      0     0  1213850.5596   786  1987375.0000     Cuts: 726    15101   38.58%
      0     0  1243841.1801   779  1987375.0000     Cuts: 726    16915   36.92%
*     0+    0                      1980551.0000  1253673.5752            36.70%
      0     0  1266094.0860   806  1980551.0000     Cuts: 571    18787   35.92%

GUB cover cuts applied:  0
Cover cuts applied:  10
Flow cuts applied:  410
Mixed integer rounding cuts applied:  916
Flow path cuts applied:  46
Multi commodity flow cuts applied:  30
Gomory fractional cuts applied:  4
Disjunctive cuts applied:  0
Cone linearizations applied:  0

Root node processing (before b&c):
  Real time             =    6.12 sec. (10000.79 ticks)
Parallel b&c, 8 threads:
  Real time             =    0.00 sec. (0.00 ticks)
  Sync time (average)   =    0.00 sec.
  Wait time (average)   =    0.00 sec.
                          ------------
Total (root+branch&cut) =    6.12 sec. (10000.79 ticks)
Gap: 35.57%
Upper bound: 1.98055e+06
Lower bound: 1.27606e+06
End of CPLEX run. Time: 6.12186 seconds
